NAME: random problem
TYPE: MTSP
COMMENT: MTSP problem for MRS UAV summer school
DIMENSION: 20
NUMBER_OF_ROBOTS: 2
START_TARGET_INDEXES: 1, 2
NEIGHBORHOOD_RADIUS: 2
EDGE_WEIGHT_TYPE: EUC_2D
NODE_COORD_SECTION
1 15.0 -21.0
2 -5.0 -25.0
3 2.5 -9.5
4 3.8 -6.2
5 -13.1 7.4
6 28.1 -23.6
7 12.0 17.6
8 -3.7 12.8
9 -14.2 -10.8
10 13.4 -8.8
11 -1.3 -15.8
12 -8.5 -28.1
13 -35.7 -0.6
14 -13.0 -14.5
15 32.3 10.0
16 37.3 -9.4
17 -8.2 -2.9
18 30.5 -16.2
19 -10.7 -8.9
20 -28.4 8.1
EOF
